8761
30, 29, 16, 46, 25, 12, 11, 52, 13, 14, 47, 27, 26, 28, 51, 33, 43, 4, 6, 15, 5, 24, 38, 48, 37, 40, 39, 36, 35, 34, 44, 50, 20, 23, 31, 18, 17, 3, 41, 8, 9, 10, 19, 45, 32, 49, 22, 1, 21, 7, 42, 2
